; benchmark generated from python API
(set-info :status unknown)
(declare-fun strlen_72_64 () (_ BitVec 64))
(declare-fun args_0_8 () (_ BitVec 8))
(declare-fun strlen_75_64 () (_ BitVec 64))
(declare-fun args_1_8 () (_ BitVec 8))
(declare-fun sigaction_oldact_171_1216 () (_ BitVec 1216))
(declare-fun sigaction_oldact_175_1216 () (_ BitVec 1216))
(declare-fun sigaction_oldact_184_1216 () (_ BitVec 1216))
(declare-fun sigaction_oldact_198_1216 () (_ BitVec 1216))
(declare-fun sigaction_oldact_227_1216 () (_ BitVec 1216))
(declare-fun sigaction_oldact_280_1216 () (_ BitVec 1216))
(declare-fun sigaction_oldact_377_1216 () (_ BitVec 1216))
(declare-fun sigaction_oldact_596_1216 () (_ BitVec 1216))
(declare-fun sigaction_oldact_977_1216 () (_ BitVec 1216))
(declare-fun sigaction_oldact_1851_1216 () (_ BitVec 1216))
(assert
 (let (($x351 (= (_ bv1 64) strlen_72_64)))
 (not $x351)))
(assert
 (let ((?x82 (bvadd (_ bv576460752303357824 64) strlen_72_64)))
 (let (($x69 (= (_ bv0 8) args_0_8)))
 (let ((?x46 (ite $x69 (_ bv576460752303357824 64) (_ bv576460752303357825 64))))
 (= ?x46 ?x82)))))
(assert
 (let (($x347 (= (_ bv0 8) args_1_8)))
 (let ((?x355 (ite $x347 (_ bv576460752303357826 64) (_ bv576460752303357827 64))))
 (let ((?x356 (bvsub ?x355 (_ bv576460752303357826 64))))
 (= ?x356 strlen_75_64)))))
(assert
 (let ((?x1831 ((_ extract 127 120) sigaction_oldact_171_1216)))
 (let ((?x2319 (bvand ?x1831 (_ bv4 8))))
 (= (_ bv0 8) ?x2319))))
(assert
 (let ((?x2264 ((_ extract 127 120) sigaction_oldact_175_1216)))
 (let ((?x2349 (bvand ?x2264 (_ bv4 8))))
 (= (_ bv0 8) ?x2349))))
(assert
 (let ((?x2642 ((_ extract 127 120) sigaction_oldact_184_1216)))
 (let ((?x2659 (bvand ?x2642 (_ bv4 8))))
 (and (distinct (_ bv0 8) ?x2659) true))))
(assert
 (let ((?x3504 ((_ extract 127 120) sigaction_oldact_198_1216)))
 (let ((?x3529 (bvand ?x3504 (_ bv4 8))))
 (and (distinct (_ bv0 8) ?x3529) true))))
(assert
 (let ((?x5442 ((_ extract 127 120) sigaction_oldact_227_1216)))
 (let ((?x5452 (bvand ?x5442 (_ bv4 8))))
 (= (_ bv0 8) ?x5452))))
(assert
 (let ((?x8844 ((_ extract 127 120) sigaction_oldact_280_1216)))
 (let ((?x8854 (bvand ?x8844 (_ bv4 8))))
 (= (_ bv0 8) ?x8854))))
(assert
 (let ((?x15430 ((_ extract 127 120) sigaction_oldact_377_1216)))
 (let ((?x15455 (bvand ?x15430 (_ bv4 8))))
 (and (distinct (_ bv0 8) ?x15455) true))))
(assert
 (let ((?x31339 ((_ extract 127 120) sigaction_oldact_596_1216)))
 (let ((?x31359 (bvand ?x31339 (_ bv4 8))))
 (= (_ bv0 8) ?x31359))))
(assert
 (let ((?x55997 ((_ extract 127 120) sigaction_oldact_977_1216)))
 (let ((?x56022 (bvand ?x55997 (_ bv4 8))))
 (and (distinct (_ bv0 8) ?x56022) true))))
(assert
 (let ((?x67930 ((_ extract 127 120) sigaction_oldact_1851_1216)))
 (let ((?x67993 (bvand ?x67930 (_ bv4 8))))
 (and (distinct (_ bv0 8) ?x67993) true))))
(maximize sigaction_oldact_198_1216)
(minimize sigaction_oldact_596_1216)
(minimize args_1_8)
(minimize sigaction_oldact_227_1216)
(maximize sigaction_oldact_227_1216)
(maximize sigaction_oldact_977_1216)
(minimize args_0_8)
(maximize sigaction_oldact_184_1216)
(maximize sigaction_oldact_175_1216)
(minimize sigaction_oldact_1851_1216)
(minimize sigaction_oldact_377_1216)
(maximize strlen_72_64)
(minimize strlen_75_64)
(maximize sigaction_oldact_1851_1216)
(minimize strlen_72_64)
(maximize args_0_8)
(maximize strlen_75_64)
(minimize sigaction_oldact_184_1216)
(minimize sigaction_oldact_175_1216)
(maximize sigaction_oldact_377_1216)
(maximize args_1_8)
(minimize sigaction_oldact_280_1216)
(maximize sigaction_oldact_280_1216)
(minimize sigaction_oldact_171_1216)
(minimize sigaction_oldact_977_1216)
(maximize sigaction_oldact_596_1216)
(minimize sigaction_oldact_198_1216)
(maximize sigaction_oldact_171_1216)
(check-sat)
(get-objectives)
